n = 48;
rows = 120;
supports = [|
  {1},{1},
 |{1},13..37,
 |{2},{2},
 |{2},14..38,
 |{3},{3},
 |{3},15..39,
 |{4},{4},
 |{4},16..40,
 |{5},{5},
 |{5},17..41,
 |{6},{6},
 |{6},18..42,
 |{7},{7},
 |{7},19..43,
 |{8},{8},
 |{8},20..44,
 |{9},{9},
 |{9},21..45,
 |{10},{10},
 |{10},22..46,
 |{11},{11},
 |{11},23..47,
 |{12},{12},
 |{12},24..48,
 |{13},{13},
 |{13},{1},
 |{13},25..48,
 |{14},{14},
 |{14},1..2,
 |{14},26..48,
 |{15},{15},
 |{15},1..3,
 |{15},27..48,
 |{16},{16},
 |{16},1..4,
 |{16},28..48,
 |{17},{17},
 |{17},1..5,
 |{17},29..48,
 |{18},{18},
 |{18},1..6,
 |{18},30..48,
 |{19},{19},
 |{19},1..7,
 |{19},31..48,
 |{20},{20},
 |{20},1..8,
 |{20},32..48,
 |{21},{21},
 |{21},1..9,
 |{21},33..48,
 |{22},{22},
 |{22},1..10,
 |{22},34..48,
 |{23},{23},
 |{23},1..11,
 |{23},35..48,
 |{24},{24},
 |{24},1..12,
 |{24},36..48,
 |{25},{25},
 |{25},1..13,
 |{25},37..48,
 |{26},{26},
 |{26},1..14,
 |{26},38..48,
 |{27},{27},
 |{27},1..15,
 |{27},39..48,
 |{28},{28},
 |{28},1..16,
 |{28},40..48,
 |{29},{29},
 |{29},1..17,
 |{29},41..48,
 |{30},{30},
 |{30},1..18,
 |{30},42..48,
 |{31},{31},
 |{31},1..19,
 |{31},43..48,
 |{32},{32},
 |{32},1..20,
 |{32},44..48,
 |{33},{33},
 |{33},1..21,
 |{33},45..48,
 |{34},{34},
 |{34},1..22,
 |{34},46..48,
 |{35},{35},
 |{35},1..23,
 |{35},47..48,
 |{36},{36},
 |{36},1..24,
 |{36},{48},
 |{37},{37},
 |{37},1..25,
 |{38},{38},
 |{38},2..26,
 |{39},{39},
 |{39},3..27,
 |{40},{40},
 |{40},4..28,
 |{41},{41},
 |{41},5..29,
 |{42},{42},
 |{42},6..30,
 |{43},{43},
 |{43},7..31,
 |{44},{44},
 |{44},8..32,
 |{45},{45},
 |{45},9..33,
 |{46},{46},
 |{46},10..34,
 |{47},{47},
 |{47},11..35,
 |{48},{48},
 |{48},12..36 |];

t = 176;

indexes = [|
    0,8,
  | 0,11,
  | 0,14,
  | 0,15,
  | 0,23,
  | 0,29,
  | 0,31,
  | 1,2,
  | 1,3,
  | 1,8,
  | 1,22,
  | 1,44,
  | 1,45,
  | 2,3,
  | 2,8,
  | 2,26,
  | 3,8,
  | 3,27,
  | 3,33,
  | 3,36,
  | 3,42,
  | 4,5,
  | 4,7,
  | 4,18,
  | 4,19,
  | 4,20,
  | 4,22,
  | 4,24,
  | 5,9,
  | 5,13,
  | 5,18,
  | 5,21,
  | 5,22,
  | 5,25,
  | 6,7,
  | 6,14,
  | 6,19,
  | 6,20,
  | 6,33,
  | 6,38,
  | 6,43,
  | 6,46,
  | 7,14,
  | 7,19,
  | 7,20,
  | 7,24,
  | 7,33,
  | 7,38,
  | 7,46,
  | 8,10,
  | 8,11,
  | 8,14,
  | 9,11,
  | 9,12,
  | 9,13,
  | 9,21,
  | 9,23,
  | 9,25,
  | 9,28,
  | 9,30,
  | 9,41,
  | 10,26,
  | 10,27,
  | 10,28,
  | 10,31,
  | 10,45,
  | 10,46,
  | 11,14,
  | 11,28,
  | 11,30,
  | 11,41,
  | 12,13,
  | 12,17,
  | 12,21,
  | 12,25,
  | 12,28,
  | 12,30,
  | 12,40,
  | 12,41,
  | 13,17,
  | 13,19,
  | 13,21,
  | 13,25,
  | 13,28,
  | 13,30,
  | 13,42,
  | 13,47,
  | 14,33,
  | 14,46,
  | 15,16,
  | 15,32,
  | 15,37,
  | 16,18,
  | 16,21,
  | 16,23,
  | 16,32,
  | 16,37,
  | 16,47,
  | 17,25,
  | 17,34,
  | 17,36,
  | 17,39,
  | 17,41,
  | 18,22,
  | 18,23,
  | 18,35,
  | 18,47,
  | 19,20,
  | 19,33,
  | 19,38,
  | 19,39,
  | 19,42,
  | 19,46,
  | 19,47,
  | 20,24,
  | 20,38,
  | 20,39,
  | 20,46,
  | 21,30,
  | 21,40,
  | 22,42,
  | 22,44,
  | 22,45,
  | 23,29,
  | 23,31,
  | 23,47,
  | 24,38,
  | 24,43,
  | 24,45,
  | 24,46,
  | 25,28,
  | 25,30,
  | 25,41,
  | 26,27,
  | 26,32,
  | 26,40,
  | 26,43,
  | 26,45,
  | 27,36,
  | 27,38,
  | 27,42,
  | 27,45,
  | 28,30,
  | 28,31,
  | 28,40,
  | 28,41,
  | 28,46,
  | 29,31,
  | 29,34,
  | 29,35,
  | 29,37,
  | 29,41,
  | 30,40,
  | 31,32,
  | 31,46,
  | 32,37,
  | 32,40,
  | 32,43,
  | 33,38,
  | 33,39,
  | 34,35,
  | 34,36,
  | 34,37,
  | 34,39,
  | 34,47,
  | 35,37,
  | 36,39,
  | 36,42,
  | 36,44,
  | 38,39,
  | 38,43,
  | 38,46,
  | 40,43,
  | 42,47,
  | 43,46,
  | 44,45 |];

